# ------------------------------------------------------------------------------
### TIP4P-Ew and Joung-Cheatham potential for K, Cl and water ###
pair_style  lj/cut/tip4p/long 1 2 1 1 0.1250 10.0  

bond_style      harmonic
angle_style     harmonic
kspace_style    pppm/tip4p 1e-6 # Default value from LAMMPS is 1e-4

# Water TIP4P-Ew (4-site model)
pair_coeff      2 2 0.00000 1.00000 # H-H
pair_coeff      1 1 0.16275	3.16435 # O-O
pair_coeff      1 2 0.00000 1.00000 # O-H
# Joung-Cheatham potential
# sigma and epsilon cross-interactions using the Lorentz-Berthelot mixing rules 
# cation-water interactions
pair_coeff      1 3 0.213267	2.998704  # O-K
pair_coeff      2 3 0.00 1.00    # H-K ; this is basically zero 
# cation-cation interaction 
pair_coeff      3 3 0.279465	2.833058 # K-K
# Interactions with Cl- (Joung-Cheatham)
pair_coeff      4 4 0.011662	4.917761 # Cl-Cl 
pair_coeff      1 4 0.043565	4.041055 # O-Cl
pair_coeff      2 4 0.0000	1.0000 # H-Cl
pair_coeff      3 4 0.057087	3.875409 # K-Cl

bond_coeff      1 10000.00 0.9572
angle_coeff     1 10000.00 104.52

# -------------------------------------------------------------------------------
# create groups ###
group hy        type 2
group ox        type 1
group ion       type 3
group ions     type 3 4
group water     type 1 2
group counterion type 4 

# Masses
mass            2 1.00794 # hy
mass            1 15.9994  # ox
mass            3 39.0983 # K+
mass            4 35.453 # Cl-

## set charges - beside manually ###
set group ox charge    -1.04844
set group hy charge    0.52422
set group counterion charge -1.0 
set group ion charge  1.0

###########################################################################################################################################